Simon32/MILP/sol/7Round_517.sol
# Objective value = 15.999999999999991
xobj 15.999999999999991
L1_r1 -0.0
L8_r1 -0.0
v_AfterAnd_1_0 -0.0
L2_r1 -0.0
L9_r1 -0.0
v_AfterAnd_1_1 -0.0
L3_r1 5.684341886080802e-14
L10_r1 -0.0
v_AfterAnd_1_2 0.0
L4_r1 -0.0
L11_r1 -0.0
v_AfterAnd_1_3 0.0
L5_r1 1.9984014443252818e-14
L12_r1 5.684341886080802e-14
v_AfterAnd_1_4 -0.0
L6_r1 0.0
L13_r1 -0.0
v_AfterAnd_1_5 0.0
L7_r1 1.0
L14_r1 -0.0
v_AfterAnd_1_6 -0.0
L15_r1 -0.0
v_AfterAnd_1_7 -0.0
L0_r1 0.0
v_AfterAnd_1_8 -0.0
v_AfterAnd_1_9 0.0
v_AfterAnd_1_10 -0.0
v_AfterAnd_1_11 -1.7763568394002505e-15
v_AfterAnd_1_12 0.0
v_AfterAnd_1_13 0.0
v_AfterAnd_1_14 0.0
v_AfterAnd_1_15 -0.0
S0_r1 0.0
S1_r1 0.0
S2_r1 0.0
S3_r1 0.0
S4_r1 0.0
S5_r1 -0.0
S6_r1 1.0
S7_r1 0.0
S8_r1 0.0
S9_r1 0.0
S10_r1 0.0
S11_r1 5.684341886080802e-14
S12_r1 0.0
S13_r1 -0.0
S14_r1 -0.0
S15_r1 1.0
R0_r1 -0.0
L0_r2 1.6542323066914832e-14
R1_r1 7.815970093361102e-14
L1_r2 1.9984014443252818e-14
R2_r1 0.0
L2_r2 -0.0
R3_r1 -0.0
L3_r2 0.0
R4_r1 0.0
L4_r2 -0.0
R5_r1 1.0000000000000036
L5_r2 -0.0
R6_r1 0.0
L6_r2 0.0
R7_r1 1.9984014443252818e-14
L7_r2 1.9984014443252818e-14
R8_r1 0.0
L8_r2 0.0
R9_r1 1.0
L9_r2 1.0
R10_r1 -0.0
L10_r2 -2.0317081350640365e-14
R11_r1 0.0
L11_r2 4.440892098500626e-16
R12_r1 0.0
L12_r2 0.0
R13_r1 0.0
L13_r2 -0.0
R14_r1 5.684341886080802e-14
L14_r2 5.684341886080802e-14
R15_r1 0.0
L15_r2 -0.0
R0_r2 0.0
R1_r2 -0.0
R2_r2 -0.0
R3_r2 5.684341886080802e-14
R4_r2 -0.0
R5_r2 1.9984014443252818e-14
R6_r2 0.0
R7_r2 1.0
R8_r2 -0.0
R9_r2 -0.0
R10_r2 -0.0
R11_r2 -0.0
R12_r2 5.684341886080802e-14
R13_r2 -0.0
R14_r2 -0.0
R15_r2 -0.0
v_AfterAnd_2_0 -0.0
v_AfterAnd_2_1 0.0
v_AfterAnd_2_2 0.0
v_AfterAnd_2_3 -0.0
v_AfterAnd_2_4 0.0
v_AfterAnd_2_5 0.0
v_AfterAnd_2_6 3.952393967665557e-14
v_AfterAnd_2_7 0.0
v_AfterAnd_2_8 -2.0317081350640365e-14
v_AfterAnd_2_9 4.440892098500626e-16
v_AfterAnd_2_10 0.0
v_AfterAnd_2_11 0.0
v_AfterAnd_2_12 0.0
v_AfterAnd_2_13 -9.325873406851315e-15
v_AfterAnd_2_14 -0.0
v_AfterAnd_2_15 1.9984014443252818e-14
S0_r2 -0.0
S1_r2 1.0
S2_r2 0.0
S3_r2 2.220446049250313e-16
S4_r2 0.0
S5_r2 0.0
S6_r2 3.952393967665557e-14
S7_r2 0.0
S8_r2 1.0
S9_r2 4.440892098500626e-16
S10_r2 0.0
S11_r2 -0.0
S12_r2 0.0
S13_r2 -9.325873406851315e-15
S14_r2 0.0
S15_r2 1.9984014443252818e-14
L0_r3 -0.0
L1_r3 -0.0
L2_r3 -0.0
L3_r3 -1.5631940186722204e-13
L4_r3 -0.0
L5_r3 -0.0
L6_r3 3.952393967665557e-14
L7_r3 -0.0
L8_r3 0.0
L9_r3 -0.0
L10_r3 0.0
L11_r3 -0.0
L12_r3 -0.0
L13_r3 -9.325873406851315e-15
L14_r3 -0.0
L15_r3 -0.0
R0_r3 1.6542323066914832e-14
R1_r3 1.9984014443252818e-14
R2_r3 -0.0
R3_r3 0.0
R4_r3 -0.0
R5_r3 -0.0
R6_r3 0.0
R7_r3 1.9984014443252818e-14
R8_r3 0.0
R9_r3 1.0
R10_r3 -2.0317081350640365e-14
R11_r3 4.440892098500626e-16
R12_r3 0.0
R13_r3 -0.0
R14_r3 5.684341886080802e-14
R15_r3 -0.0
v_AfterAnd_3_0 0.0
v_AfterAnd_3_1 0.0
v_AfterAnd_3_2 -0.0
v_AfterAnd_3_3 -0.0
v_AfterAnd_3_4 -0.0
v_AfterAnd_3_5 3.375077994860476e-14
v_AfterAnd_3_6 -0.0
v_AfterAnd_3_7 0.0
v_AfterAnd_3_8 0.0
v_AfterAnd_3_9 0.0
v_AfterAnd_3_10 -2.0317081350640365e-14
v_AfterAnd_3_11 -1.5631940186722204e-13
v_AfterAnd_3_12 0.0
v_AfterAnd_3_13 0.0
v_AfterAnd_3_14 -0.0
v_AfterAnd_3_15 0.0
S0_r3 0.0
S1_r3 0.0
S2_r3 -1.5631940186722204e-13
S3_r3 0.0
S4_r3 0.0
S5_r3 3.375077994860476e-14
S6_r3 -0.0
S7_r3 -0.0
S8_r3 0.0
S9_r3 0.0
S10_r3 0.0
S11_r3 -1.5631940186722204e-13
S12_r3 -9.325873406851315e-15
S13_r3 0.0
S14_r3 3.952393967665557e-14
S15_r3 0.0
L0_r4 1.6542323066914832e-14
L1_r4 -1.0391687510491465e-13
L2_r4 0.0
L3_r4 -0.0
L4_r4 4.04121180963557e-14
L5_r4 2.930988785010413e-14
L6_r4 -0.0
L7_r4 1.9984014443252818e-14
L8_r4 -0.0
L9_r4 1.0
L10_r4 0.0
L11_r4 0.0
L12_r4 -0.0
L13_r4 -0.0
L14_r4 5.684341886080802e-14
L15_r4 0.0
R0_r4 -0.0
R1_r4 -0.0
R2_r4 -0.0
R3_r4 -1.5631940186722204e-13
R4_r4 -0.0
R5_r4 -0.0
R6_r4 3.952393967665557e-14
R7_r4 -0.0
R8_r4 0.0
R9_r4 -0.0
R10_r4 0.0
R11_r4 -0.0
R12_r4 -0.0
R13_r4 -9.325873406851315e-15
R14_r4 -0.0
R15_r4 -0.0
v_AfterAnd_4_0 0.0
v_AfterAnd_4_1 0.0
v_AfterAnd_4_2 -0.0
v_AfterAnd_4_3 0.0
v_AfterAnd_4_4 -0.0
v_AfterAnd_4_5 -0.0
v_AfterAnd_4_6 -0.0
v_AfterAnd_4_7 -0.0
v_AfterAnd_4_8 -0.0
v_AfterAnd_4_9 -1.0391687510491465e-13
v_AfterAnd_4_10 -5.950795411990839e-14
v_AfterAnd_4_11 0.0
v_AfterAnd_4_12 4.973799150320701e-14
v_AfterAnd_4_13 2.930988785010413e-14
v_AfterAnd_4_14 -0.0
v_AfterAnd_4_15 -0.0
S0_r4 -1.0391687510491465e-13
S1_r4 1.0
S2_r4 0.0
S3_r4 -0.0
S4_r4 2.930988785010413e-14
S5_r4 -0.0
S6_r4 0.0
S7_r4 0.0
S8_r4 1.0
S9_r4 -1.0391687510491465e-13
S10_r4 0.0
S11_r4 -0.0
S12_r4 4.04121180963557e-14
S13_r4 2.930988785010413e-14
S14_r4 -0.0
S15_r4 1.6542323066914832e-14
L0_r5 -0.0
L1_r5 -0.0
L2_r5 3.3084646133829665e-14
L3_r5 2.1316282072803006e-14
L4_r5 -0.0
L5_r5 -2.6645352591003757e-15
L6_r5 6.483702463810914e-14
L7_r5 1.0
L8_r5 -0.0
L9_r5 2.7533531010703882e-14
L10_r5 -5.950795411990839e-14
L11_r5 -0.0
L12_r5 -2.6645352591003757e-15
L13_r5 5.861977570020827e-14
L14_r5 1.6542323066914832e-14
L15_r5 -1.0391687510491465e-13
R0_r5 1.6542323066914832e-14
R1_r5 -1.0391687510491465e-13
R2_r5 0.0
R3_r5 -0.0
R4_r5 4.04121180963557e-14
R5_r5 2.930988785010413e-14
R6_r5 -0.0
R7_r5 1.9984014443252818e-14
R8_r5 -0.0
R9_r5 1.0
R10_r5 0.0
R11_r5 0.0
R12_r5 -0.0
R13_r5 -0.0
R14_r5 5.684341886080802e-14
R15_r5 0.0
v_AfterAnd_5_0 0.0
v_AfterAnd_5_1 6.039613253960852e-14
v_AfterAnd_5_2 0.0
v_AfterAnd_5_3 0.0
v_AfterAnd_5_4 -2.6645352591003757e-15
v_AfterAnd_5_5 -3.019806626980426e-14
v_AfterAnd_5_6 -4.440892098500626e-16
v_AfterAnd_5_7 -1.0391687510491465e-13
v_AfterAnd_5_8 -0.0
v_AfterAnd_5_9 -5.950795411990839e-14
v_AfterAnd_5_10 -0.0
v_AfterAnd_5_11 1.0658141036401503e-14
v_AfterAnd_5_12 1.6542323066914832e-14
v_AfterAnd_5_13 -1.0391687510491465e-13
v_AfterAnd_5_14 5.684341886080802e-14
v_AfterAnd_5_15 0.0
S0_r5 -0.0
S1_r5 6.039613253960852e-14
S2_r5 2.1316282072803006e-14
S3_r5 0.0
S4_r5 -2.6645352591003757e-15
S5_r5 -3.019806626980426e-14
S6_r5 1.0
S7_r5 -1.0391687510491465e-13
S8_r5 2.7533531010703882e-14
S9_r5 -5.950795411990839e-14
S10_r5 3.3084646133829665e-14
S11_r5 1.0658141036401503e-14
S12_r5 5.861977570020827e-14
S13_r5 -1.0391687510491465e-13
S14_r5 6.483702463810914e-14
S15_r5 1.0
L0_r6 1.6542323066914832e-14
L1_r6 -6.217248937900877e-14
L2_r6 0.0
L3_r6 -0.0
L4_r6 3.3084646133829665e-14
L5_r6 1.0
L6_r6 -4.440892098500626e-16
L7_r6 -1.2656542480726785e-14
L8_r6 -6.217248937900877e-14
L9_r6 1.0000000000000595
L10_r6 0.0
L11_r6 -3.197442310920451e-14
L12_r6 -0.0
L13_r6 -0.0
L14_r6 -0.0
L15_r6 -0.0
R0_r6 -0.0
R1_r6 -0.0
R2_r6 3.3084646133829665e-14
R3_r6 2.1316282072803006e-14
R4_r6 -0.0
R5_r6 -2.6645352591003757e-15
R6_r6 6.483702463810914e-14
R7_r6 1.0
R8_r6 -0.0
R9_r6 2.7533531010703882e-14
R10_r6 -5.950795411990839e-14
R11_r6 -0.0
R12_r6 -2.6645352591003757e-15
R13_r6 5.861977570020827e-14
R14_r6 1.6542323066914832e-14
R15_r6 -1.0391687510491465e-13
v_AfterAnd_6_0 -0.0
v_AfterAnd_6_1 1.000000000000002
v_AfterAnd_6_2 0.0
v_AfterAnd_6_3 0.0
v_AfterAnd_6_4 -4.440892098500626e-16
v_AfterAnd_6_5 -0.0
v_AfterAnd_6_6 -1.2656542480726785e-14
v_AfterAnd_6_7 -5.950795411990839e-14
v_AfterAnd_6_8 0.0
v_AfterAnd_6_9 -5.950795411990839e-14
v_AfterAnd_6_10 -5.950795411990839e-14
v_AfterAnd_6_11 0.0
v_AfterAnd_6_12 -2.6645352591003757e-15
v_AfterAnd_6_13 5.861977570020827e-14
v_AfterAnd_6_14 0.0
v_AfterAnd_6_15 -7.882583474838611e-15
S0_r6 -6.217248937900877e-14
S1_r6 1.0000000000000595
S2_r6 -0.0
S3_r6 0.0
S4_r6 1.0
S5_r6 -4.440892098500626e-16
S6_r6 -1.2656542480726785e-14
S7_r6 -2.220446049250313e-14
S8_r6 1.0000000000000595
S9_r6 -5.950795411990839e-14
S10_r6 -3.197442310920451e-14
S11_r6 0.0
S12_r6 3.3084646133829665e-14
S13_r6 1.0
S14_r6 0.0
S15_r6 -7.882583474838611e-15
L0_r7 0.0
L1_r7 1.0
L2_r7 -0.0
L3_r7 1.0
L4_r7 0.0
L5_r7 -0.0
L6_r7 -0.0
L7_r7 -0.0
L8_r7 0.0
L9_r7 -0.0
L10_r7 -0.0
L11_r7 -0.0
L12_r7 0.0
L13_r7 -0.0
L14_r7 0.0
L15_r7 -0.0
R0_r7 1.6542323066914832e-14
R1_r7 -6.217248937900877e-14
R2_r7 0.0
R3_r7 -0.0
R4_r7 3.3084646133829665e-14
R5_r7 1.0
R6_r7 -4.440892098500626e-16
R7_r7 -1.2656542480726785e-14
R8_r7 -6.217248937900877e-14
R9_r7 1.0000000000000595
R10_r7 0.0
R11_r7 -3.197442310920451e-14
R12_r7 -0.0
R13_r7 -0.0
R14_r7 -0.0
R15_r7 -0.0
v_AfterAnd_7_0 -0.0
v_AfterAnd_7_1 -0.0
v_AfterAnd_7_2 0.0
v_AfterAnd_7_3 -0.0
v_AfterAnd_7_4 -0.0
v_AfterAnd_7_5 -0.0
v_AfterAnd_7_6 -0.0
v_AfterAnd_7_7 -0.0
v_AfterAnd_7_8 -0.0
v_AfterAnd_7_9 -0.0
v_AfterAnd_7_10 -0.0
v_AfterAnd_7_11 -0.0
v_AfterAnd_7_12 0.0
v_AfterAnd_7_13 -0.0
v_AfterAnd_7_14 0.0
v_AfterAnd_7_15 -0.0
S0_r7 1.0
S1_r7 0.0
S2_r7 1.0
S3_r7 0.0
S4_r7 -0.0
S5_r7 0.0
S6_r7 0.0
S7_r7 0.0
S8_r7 0.0
S9_r7 1.0
S10_r7 0.0
S11_r7 1.0
S12_r7 -0.0
S13_r7 0.0
S14_r7 -0.0
S15_r7 0.0
L0_r8 1.6542323066914832e-14
L1_r8 1.0000000000000622
L2_r8 -0.0
L3_r8 -0.0
L4_r8 3.3084646133829665e-14
L5_r8 1.0
L6_r8 -0.0
L7_r8 -0.0
L8_r8 -6.217248937900877e-14
L9_r8 1.0000000000000595
L10_r8 0.0
L11_r8 -3.197442310920451e-14
L12_r8 -0.0
L13_r8 -0.0
L14_r8 0.0
L15_r8 1.0
R0_r8 0.0
R1_r8 1.0
R2_r8 -0.0
R3_r8 1.0
R4_r8 0.0
R5_r8 -0.0
R6_r8 -0.0
R7_r8 -0.0
R8_r8 0.0
R9_r8 -0.0
R10_r8 -0.0
R11_r8 -0.0
R12_r8 0.0
R13_r8 -0.0
R14_r8 0.0
R15_r8 -0.0
